param n := 50;
param c := 150;
param w := 
1 149
2 141
3 136
4 136
5 133
6 131
7 129
8 129
9 128
10 127
11 124
12 119
13 107
14 103
15 101
16 99
17 87
18 87
19 80
20 79
21 78
22 78
23 77
24 77
25 74
26 72
27 65
28 63
29 60
30 58
31 56
32 49
33 44
34 41
35 39
36 39
37 36
38 34
39 28
40 25
41 25
42 16
43 15
44 14
45 12
46 11
47 10
48 9
49 9
50 4
;